NAME: CMT11_4
TYPE: CVRP
COMMENT: 1042.11 - Cluster Nr.4
DIMENSION: 21
CAPACITY: 200
EDGE_WEIGHT_TYPE: EUC_2D
NODE_COORD_TYPE: TWOD_COORDS
NODE_COORD_SECTION: 
11 87 7
17 82 7
8 79 5
1 84 5
6 87 5
13 85 1
19 76 13
12 76 10
14 85 8
2 82 3
5 73 6
3 84 9
18 79 3
7 78 3
15 90 15
9 84 3
4 76 6
10 10 45
16 79 11
20 78 9
21 73 8
DEPOT_SECTION: 
10
-1
DEMAND_SECTION: 
17 5
15 9
8 16
21 18
3 3
2 6
16 15
9 11
4 17
7 12
6 2
1 10
12 4
14 4
19 7
5 13
18 8
10 0
11 4
20 13
13 7
EOF
